NAME          
ROWS
 N  OBJ
 L  c1
 L  c2
 L  c3
 L  c4
COLUMNS
    MARKER    'MARKER'                 'INTORG'
    x[1]      c1        798
    x[1]      c2        95
    x[1]      c3        239
    x[1]      c4        904
    x[1]      OBJ       -191
    x[2]      c1        895
    x[2]      c2        136
    x[2]      c3        781
    x[2]      c4        84
    x[2]      OBJ       -423
    x[3]      c1        783
    x[3]      c2        454
    x[3]      c3        977
    x[3]      c4        851
    x[3]      OBJ       -859
    x[4]      c1        730
    x[4]      c2        875
    x[4]      c3        943
    x[4]      c4        852
    x[4]      OBJ       -685
    x[5]      c1        727
    x[5]      c2        112
    x[5]      c3        363
    x[5]      c4        849
    x[5]      OBJ       -398
    x[6]      c1        535
    x[6]      c2        683
    x[6]      c3        39
    x[6]      c4        205
    x[6]      OBJ       -272
    x[7]      c1        100
    x[7]      c2        809
    x[7]      c3        128
    x[7]      c4        987
    x[7]      OBJ       -271
    x[8]      c1        488
    x[8]      c2        240
    x[8]      c3        137
    x[8]      c4        97
    x[8]      OBJ       -126
    x[9]      c1        491
    x[9]      c2        795
    x[9]      c3        490
    x[9]      c4        582
    x[9]      OBJ       -796
    x[10]     c1        37
    x[10]     c2        734
    x[10]     c3        2
    x[10]     c4        274
    x[10]     OBJ       -935
    x[11]     c1        470
    x[11]     c2        769
    x[11]     c3        621
    x[11]     c4        158
    x[11]     OBJ       -293
    x[12]     c1        360
    x[12]     c2        150
    x[12]     c3        632
    x[12]     c4        474
    x[12]     OBJ       -108
    x[13]     c1        766
    x[13]     c2        703
    x[13]     c3        241
    x[13]     c4        836
    x[13]     OBJ       -339
    x[14]     c1        371
    x[14]     c2        771
    x[14]     c3        930
    x[14]     c4        935
    x[14]     OBJ       -81
    x[15]     c1        963
    x[15]     c2        447
    x[15]     c3        688
    x[15]     c4        605
    x[15]     OBJ       -354
    x[16]     c1        675
    x[16]     c2        27
    x[16]     c3        567
    x[16]     c4        60
    x[16]     OBJ       -75
    x[17]     c1        369
    x[17]     c2        236
    x[17]     c3        615
    x[17]     c4        269
    x[17]     OBJ       -786
    x[18]     c1        233
    x[18]     c2        155
    x[18]     c3        792
    x[18]     c4        819
    x[18]     OBJ       -191
    x[19]     c1        38
    x[19]     c2        760
    x[19]     c3        210
    x[19]     c4        345
    x[19]     OBJ       -765
    x[20]     c1        140
    x[20]     c2        594
    x[20]     c3        455
    x[20]     c4        134
    x[20]     OBJ       -882
    x[21]     c1        356
    x[21]     c2        275
    x[21]     c3        233
    x[21]     c4        910
    x[21]     OBJ       -703
    x[22]     c1        430
    x[22]     c2        87
    x[22]     c3        626
    x[22]     c4        96
    x[22]     OBJ       -341
    x[23]     c1        211
    x[23]     c2        482
    x[23]     c3        166
    x[23]     c4        924
    x[23]     OBJ       -596
    x[24]     c1        303
    x[24]     c2        209
    x[24]     c3        709
    x[24]     c4        727
    x[24]     OBJ       -3
    x[25]     c1        863
    x[25]     c2        701
    x[25]     c3        343
    x[25]     c4        891
    x[25]     OBJ       -25
RHS
    rhs       c1        6066
    rhs       c2        5650
    rhs       c3        5964
    rhs       c4        6934
RANGES
BOUNDS
 BV bounds    x[1]
 BV bounds    x[2]
 BV bounds    x[3]
 BV bounds    x[4]
 BV bounds    x[5]
 BV bounds    x[6]
 BV bounds    x[7]
 BV bounds    x[8]
 BV bounds    x[9]
 BV bounds    x[10]
 BV bounds    x[11]
 BV bounds    x[12]
 BV bounds    x[13]
 BV bounds    x[14]
 BV bounds    x[15]
 BV bounds    x[16]
 BV bounds    x[17]
 BV bounds    x[18]
 BV bounds    x[19]
 BV bounds    x[20]
 BV bounds    x[21]
 BV bounds    x[22]
 BV bounds    x[23]
 BV bounds    x[24]
 BV bounds    x[25]
ENDATA
